0.05 61550.5
0.1 50969.3
0.15 50969.3
0.2 50000.4
0.25 50000.4
0.3 48794.7
0.35 48794.7
0.4 48259.4
0.45 48211
0.5 48063.7
0.55 48063.7
0.6 48063.7
0.65 48063.7
0.7 48063.7
0.75 48026.6
0.8 48026.6
0.85 48026.6
0.9 48023.7
0.95 48023.7
1 48023.7
1.05 48023.7
1.1 48023.7
1.15 48023.7
1.2 48023.7
1.25 48023.7
1.3 48023.7
1.35 48023.7
1.4 48023.7
1.45 48023.7
1.5 48023.7
1.55 48023.7
1.6 48023.7
1.65 48023.7
1.7 48023.7
1.75 48023.7
1.8 48023.7
1.85 48023.7
1.9 48023.7
1.95 48023.7
2 48023.7
2.05 48023.7
2.1 48023.7
2.15 48023.7
2.2 48023.7
2.25 48023.7
2.3 48023.7
2.35 48023.7
2.4 48023.7
2.45 48023.7
2.5 48023.7
2.55 48023.7
2.6 48023.7
2.65 48023.7
2.7 48023.7
2.75 48023.7
2.8 48023.7
2.85 48023.7
2.9 48023.7
2.95 48023.7
3 48023.7
3.05 48023.7
3.1 48023.7
3.15 48023.7
3.2 48023.7
3.25 48023.7
3.3 48023.7
3.35 48023.7
3.4 48023.7
3.45 48023.7
3.5 48023.7
3.55 48023.7
3.6 48023.7
3.65 48023.7
3.7 48023.7
3.75 48023.7
3.8 48023.7
3.85 48023.7
3.9 48023.7
3.95 48023.7
4 48023.7
4.05 48023.7
4.1 48023.7
4.15 48023.7
4.2 48023.7
4.25 48023.7
4.3 48023.7
4.35 48023.7
4.4 48023.7
4.45 48023.7
4.5 48023.7
4.55 48023.7
4.6 48023.7
4.65 48023.7
4.7 48023.7
4.75 48023.7
4.8 48023.7
4.85 48023.7
4.9 48023.7
4.95 48023.7
5 48023.7
